n = 36;
lu = [|582, 1077
      |-1166, 850
      |-292, -140
      |-771, -451
      |-161, 131
      |-1179, 509
      |-765, 864
      |-1054, -469
      |590, 1241
      |-1079, -573
      |-14, 1181
      |-831, -271
      |-703, 35
      |805, 847
      |-897, 372
      |-1095, -3
      |-366, 79
      |-666, -26
      |-630, 835
      |-103, -32
      |-649, 595
      |-434, 1104
      |479, 719
      |-1033, 818
      |-597, 1094
      |-457, 1199
      |-1260, 1101
      |-934, 617
      |-54, 1208
      |-837, -514
      |-310, 593
      |-890, 562
      |62, 634
      |560, 1250
      |-129, 888
      |-285, 1050|];
